c File: instances/32_0.20_2.col
c
c Description: Random graph of size 32 vertices and P(0.2) of edges between any two vertices.
p col 32 496
e 1 4
e 1 6
e 1 9
e 1 10
e 1 15
e 1 18
e 1 28
e 1 29
e 1 31
e 2 14
e 2 15
e 2 26
e 2 28
e 3 5
e 3 12
e 3 14
e 3 23
e 3 24
e 3 31
e 4 16
e 4 20
e 4 23
e 4 24
e 4 25
e 4 26
e 5 8
e 5 9
e 5 12
e 5 13
e 5 20
e 5 22
e 5 26
e 5 32
e 6 15
e 6 26
e 6 30
e 6 32
e 7 8
e 7 9
e 7 11
e 7 23
e 7 29
e 8 15
e 8 16
e 8 18
e 8 22
e 9 11
e 9 12
e 9 14
e 9 15
e 9 19
e 9 24
e 9 29
e 9 32
e 10 20
e 10 21
e 10 22
e 10 27
e 10 28
e 10 32
e 11 16
e 11 26
e 11 31
e 11 32
e 12 17
e 12 18
e 12 19
e 12 20
e 12 27
e 13 15
e 13 28
e 13 29
e 13 30
e 14 15
e 14 19
e 14 20
e 14 21
e 14 25
e 14 27
e 15 20
e 15 21
e 15 24
e 15 25
e 16 17
e 16 23
e 16 28
e 16 30
e 16 32
e 17 20
e 17 22
e 17 30
e 18 30
e 19 21
e 19 30
e 20 22
e 20 26
e 21 26
e 21 31
e 22 32
e 24 28
e 24 30
e 24 31
e 25 31
e 26 29
e 27 29
e 28 29
e 30 31
e 30 32